\ENCODING=ISO-8859-1
\Problem name: IloCplex

Minimize
 obj: 1000000 l0 + l161 + 1000000 l1 + l154 + 1000000 l2 + l153 + 1000000 l3
      + l160 + 1000000 l4 + l159 + 1000000 l5 + l156 + l158 + 1000000 l6 + l145
      + l155 + 1000000 l7 + l141 + l144 + 1000000 l8 + l135 + l140 + l143
      + l210 + 1000000 l9 + l128 + l134 + l139 + l152 + l204 + 1000000 l10
      + l129 + l133 + l138 + l151 + 1000000 l11 + l125 + l127 + l148 + l164
      + l179 + l218 + 1000000 l12 + l122 + l124 + l174 + l203 + l230 + l249
      + 1000000 l13 + l119 + l120 + l121 + l169 + l190 + 1000000 l14 + l116
      + l118 + l126 + l132 + l146 + l163 + l177 + 1000000 l15 + l111 + l115
      + l173 + 1000000 l16 + l109 + l110 + l196 + l216 + l255 + 1000000 l17
      + l106 + l108 + l131 + l168 + l223 + l225 + l228 + l254 + l258
      + 1000000 l18 + l105 + l107 + l117 + l162 + l219 + l227 + l234 + l253
      + 1000000 l19 + l102 + l104 + l193 + l194 + l195 + l200 + 1000000 l20
      + l96 + l99 + l101 + l113 + l183 + l185 + l187 + l257 + 1000000 l21 + l94
      + l98 + l103 + l123 + l214 + l221 + l235 + 1000000 l22 + l95 + l97 + l137
      + l172 + l220 + l233 + l250 + 1000000 l23 + l92 + l93 + l186 + l208
      + l209 + l224 + l237 + l238 + l247 + 1000000 l24 + l88 + l91 + l112
      + l171 + l175 + l181 + l182 + l188 + l192 + l197 + l198 + l199 + l222
      + 1000000 l25 + l85 + l100 + l189 + l202 + l206 + l207 + l211 + l212
      + l213 + l215 + l217 + l229 + l231 + l232 + l236 + l240 + l242 + l246
      + l252 + l256 + 1000000 l26 + l81 + l84 + l142 + l191 + l201 + l243
      + 1000000 l27 + l86 + l147 + l149 + l150 + l166 + l205 + l241 + l251
      + 1000000 l28 + l78 + l89 + l130 + 1000000 l29 + l80 + l83 + l226
      + 1000000 l30 + l75 + l77 + l82 + l90 + l114 + 1000000 l31 + l72 + l76
      + l136 + l165 + l170 + l178 + 1000000 l32 + l73 + l79 + l87 + l157 + l176
      + 1000000 l33 + l66 + l70 + l71 + l167 + l184 + 1000000 l34 + l60 + l180
      + l239 + l244 + l245 + l248 + 1000000 l35 + l67 + l74 + 1000000 l36 + l56
      + l57 + l62 + l63 + l65 + l68 + l69 + 1000000 l37 + l64 + 1000000 l38
      + l59 + l61 + 1000000 l39 + 1000000 l40 + 1000000 l41 + l51 + l52 + l53
      + l54 + l55 + l58 + 1000000 l42 + l50 + 1000000 l43 + 1000000 l44
      + 1000000 l45 + 1000000 l46 + 1000000 l47 + 1000000 l48 + 1000000 l49
Subject To
 c1:  l0 + l161  = 1
 c2:  l1 + l154  = 1
 c3:  l2 + l153  = 1
 c4:  l3 + l160  = 1
 c5:  l4 + l159  = 1
 c6:  l5 + l156 + l158  = 1
 c7:  l6 + l145 + l155  = 1
 c8:  l7 + l141 + l144  = 1
 c9:  l8 + l135 + l140 + l143 + l210  = 1
 c10: l9 + l128 + l134 + l139 + l152 + l204  = 1
 c11: l10 + l129 + l133 + l138 + l151  = 1
 c12: l11 + l125 + l127 + l148 + l164 + l179 + l218  = 1
 c13: l12 + l122 + l124 + l174 + l203 + l230 + l249  = 1
 c14: l13 + l119 + l120 + l121 + l169 + l190  = 1
 c15: l14 + l116 + l118 + l126 + l132 + l146 + l163 + l177  = 1
 c16: l15 + l111 + l115 + l173  = 1
 c17: l16 + l109 + l110 + l196 + l216 + l255  = 1
 c18: l17 + l106 + l108 + l131 + l168 + l223 + l225 + l228 + l254 + l258  = 1
 c19: l18 + l105 + l107 + l117 + l162 + l219 + l227 + l234 + l253  = 1
 c20: l19 + l102 + l104 + l193 + l194 + l195 + l200  = 1
 c21: l20 + l96 + l99 + l101 + l113 + l183 + l185 + l187 + l257  = 1
 c22: l21 + l94 + l98 + l103 + l123 + l214 + l221 + l235  = 1
 c23: l94 + l22 + l95 + l97 + l137 + l172 + l220 + l233 + l250  = 1
 c24: l101 + l221 + l220 + l23 + l92 + l93 + l186 + l208 + l209 + l224 + l237
      + l238 + l247  = 1
 c25: l200 + l113 + l214 + l92 + l24 + l88 + l91 + l112 + l171 + l175 + l181
      + l182 + l188 + l192 + l197 + l198 + l199 + l222  = 1
 c26: l102 + l235 + l233 + l93 + l88 + l25 + l85 + l100 + l189 + l202 + l206
      + l207 + l211 + l212 + l213 + l215 + l217 + l229 + l231 + l232 + l236
      + l240 + l242 + l246 + l252 + l256  = 1
 c27: l104 + l250 + l100 + l206 + l211 + l26 + l81 + l84 + l142 + l191 + l201
      + l243  = 1
 c28: l193 + l95 + l212 + l84 + l27 + l86 + l147 + l149 + l150 + l166 + l205
      + l241 + l251  = 1
 c29: l173 + l106 + l96 + l213 + l81 + l28 + l78 + l89 + l130  = 1
 c30: l115 + l255 + l228 + l107 + l227 + l208 + l215 + l78 + l29 + l80 + l83
      + l226  = 1
 c31: l163 + l258 + l117 + l171 + l188 + l78 + l30 + l75 + l77 + l82 + l90
      + l114  = 1
 c32: l177 + l109 + l216 + l254 + l253 + l123 + l198 + l202 + l142 + l149
      + l130 + l83 + l75 + l31 + l72 + l76 + l136 + l165 + l170 + l178  = 1
 c33: l111 + l196 + l225 + l186 + l237 + l238 + l247 + l91 + l197 + l199 + l217
      + l252 + l256 + l201 + l166 + l251 + l89 + l80 + l226 + l72 + l32 + l73
      + l79 + l87 + l157 + l176  = 1
 c34: l169 + l146 + l182 + l192 + l256 + l191 + l86 + l166 + l90 + l136 + l165
      + l73 + l33 + l66 + l70 + l71 + l167 + l184  = 1
 c35: l190 + l110 + l223 + l219 + l99 + l185 + l103 + l172 + l209 + l224 + l192
      + l222 + l189 + l202 + l207 + l217 + l236 + l242 + l191 + l201 + l149
      + l205 + l241 + l226 + l72 + l70 + l71 + l34 + l60 + l180 + l239 + l244
      + l245 + l248  = 1
 c36: l183 + l187 + l91 + l181 + l189 + l77 + l114 + l87 + l66 + l70 + l167
      + l184 + l35 + l67 + l74  = 1
 c37: l174 + l119 + l131 + l234 + l257 + l186 + l224 + l175 + l181 + l182
      + l188 + l198 + l222 + l207 + l215 + l229 + l231 + l232 + l236 + l252
      + l142 + l150 + l251 + l130 + l90 + l170 + l178 + l176 + l184 + l180
      + l248 + l67 + l36 + l56 + l57 + l62 + l63 + l65 + l68 + l69  = 1
 c38: l179 + l124 + l137 + l237 + l175 + l85 + l147 + l75 + l76 + l178 + l157
      + l176 + l66 + l167 + l180 + l74 + l63 + l65 + l37 + l64  = 1
 c39: l125 + l249 + l116 + l195 + l209 + l247 + l240 + l83 + l82 + l170 + l79
      + l180 + l239 + l245 + l248 + l74 + l63 + l69 + l38 + l59 + l61  = 1
 c40: l218 + l230 + l121 + l108 + l162 + l98 + l97 + l172 + l171 + l199 + l232
      + l240 + l242 + l86 + l241 + l82 + l239 + l244 + l245 + l248 + l67 + l62
      + l65 + l68 + l64 + l59 + l61 + l39  = 1
 c41: l164 + l122 + l168 + l194 + l195 + l187 + l257 + l103 + l137 + l112 + l85
      + l231 + l246 + l147 + l114 + l136 + l165 + l170 + l73 + l79 + l87 + l157
      + l176 + l167 + l60 + l244 + l62 + l68 + l59 + l40  = 1
 c42: l126 + l194 + l183 + l185 + l238 + l112 + l213 + l229 + l246 + l84 + l76
      + l165 + l178 + l79 + l157 + l184 + l60 + l244 + l245 + l67 + l56 + l57
      + l64 + l41 + l51 + l52 + l53 + l54 + l55 + l58  = 1
 c43: l148 + l203 + l132 + l168 + l105 + l162 + l208 + l197 + l211 + l212
      + l246 + l81 + l150 + l80 + l77 + l90 + l136 + l65 + l69 + l59 + l51
      + l52 + l54 + l55 + l58 + l42 + l50  = 1
 c44: l129 + l118 + l98 + l97 + l205 + l89 + l83 + l77 + l76 + l71 + l74 + l56
      + l57 + l63 + l68 + l61 + l51 + l52 + l53 + l55 + l58 + l50 + l43  = 1
 c45: l210 + l139 + l138 + l127 + l132 + l105 + l99 + l206 + l205 + l89 + l72
      + l66 + l56 + l57 + l62 + l64 + l61 + l51 + l52 + l53 + l54 + l58 + l50
      + l44  = 1
 c46: l144 + l134 + l133 + l127 + l120 + l108 + l96 + l123 + l95 + l112 + l85
      + l80 + l77 + l82 + l73 + l71 + l60 + l57 + l62 + l61 + l51 + l52 + l53
      + l54 + l55 + l58 + l50 + l45  = 1
 c47: l140 + l204 + l120 + l118 + l131 + l92 + l100 + l89 + l130 + l82 + l76
      + l87 + l70 + l60 + l56 + l68 + l69 + l64 + l61 + l51 + l52 + l53 + l54
      + l55 + l58 + l50 + l46  = 1
 c48: l156 + l143 + l152 + l151 + l148 + l126 + l105 + l98 + l97 + l100 + l86
      + l147 + l80 + l75 + l114 + l87 + l70 + l56 + l57 + l62 + l63 + l51 + l52
      + l53 + l54 + l55 + l50 + l47  = 1
 c49: l145 + l141 + l135 + l128 + l120 + l116 + l99 + l93 + l88 + l81 + l75
      + l114 + l79 + l71 + l60 + l74 + l56 + l57 + l68 + l69 + l64 + l51 + l53
      + l54 + l55 + l58 + l50 + l48  = 1
 c50: l143 + l204 + l203 + l119 + l146 + l109 + l108 + l107 + l96 + l137 + l208
      + l209 + l88 + l171 + l189 + l206 + l207 + l205 + l78 + l73 + l87 + l60
      + l74 + l56 + l57 + l65 + l61 + l52 + l53 + l54 + l55 + l58 + l50 + l49
       = 1
Bounds
      l122 = 0
      l124 = 0
      l203 = 0
      l230 = 0
      l249 = 0
      l119 = 0
      l131 = 0
      l234 = 0
      l257 = 0
      l186 = 0
      l224 = 0
      l175 = 0
      l181 = 0
      l182 = 0
      l188 = 0
      l198 = 0
      l222 = 0
      l207 = 0
      l215 = 0
      l229 = 0
      l231 = 0
      l232 = 0
      l236 = 0
      l252 = 0
      l142 = 0
      l150 = 0
      l251 = 0
      l130 = 0
      l90 = 0
      l170 = 0
      l178 = 0
      l176 = 0
      l184 = 0
      l180 = 0
      l248 = 0
      l67 = 0
      l56 = 0
      l57 = 0
      l62 = 0
      l63 = 0
      l65 = 0
      l68 = 0
      l69 = 0
End
